%chk=100011.chk
%nproc=1
%mem=8GB
#P B3LYP/6-31G* opt

Title Card Required

0 1
C     -5.149900    0.695000    0.037000
C     -4.581600    0.702000   -1.251500
C     -4.329900    0.870400    1.168600
C      7.622400   -2.232200    0.915000
C     -3.194000    0.885300   -1.408900
C     -2.942300    1.054500    1.011500
C      8.082700   -3.383900    0.249700
C      6.277300   -1.834900    0.792300
C      5.849200   -3.744300   -0.662400
C      1.917600   -2.495400   -0.403900
C      3.257900    1.316800    0.070800
C      2.096100   -1.083500   -0.271700
C     -2.369600    1.066700   -0.278700
C      7.196600   -4.142400   -0.541900
C      5.378100   -2.589600    0.005500
C      3.491300   -0.900900   -0.083100
C      1.309100    0.093700   -0.274300
C      7.683300   -5.381600   -1.264500
C     -0.873500    1.271400   -0.455500
N      3.058100   -3.136200   -0.310200
N      4.121100    0.297200    0.103000
N      1.933200    1.287100   -0.107700
N      4.022900   -2.188500   -0.125500
N     -0.081200    0.046700   -0.456200
H     -6.214100    0.554800    0.157200
H     -5.209800    0.567600   -2.119600
H     -4.765100    0.863600    2.157200
H      8.303200   -1.649700    1.518200
H     -2.765700    0.892900   -2.400700
H     -2.319200    1.188700    1.883600
H      9.116900   -3.679700    0.348300
H      5.948500   -0.940600    1.299900
H      5.177500   -4.335100   -1.268500
H      1.004400   -3.050500   -0.558900
H      3.688600    2.297900    0.205300
H      7.573000   -6.273200   -0.646300
H      8.736900   -5.277200   -1.524900
H      7.115100   -5.531600   -2.182700
H     -0.495400    1.940000    0.319000
H     -0.710900    1.781000   -1.405300
H     -0.560200   -0.822000   -0.268700


--Link1--
%chk=100011.chk
%nproc=1
%mem=8GB
#p M062X/6-31G* geom=checkpoint guess=read scrf=(smd,solvent=water,externaliteration,1stVac)

Title Card Required

0 1

